
Gurobi 9.0.1 (linux64) logging started Thu Apr 30 18:28:57 2020

Gurobi Optimizer version 9.0.1 build v9.0.1rc0 (linux64)
Optimize a model with 13307 rows, 12060 columns and 202950 nonzeros
Model fingerprint: 0x6a0833e0
Variable types: 0 continuous, 12060 integer (12032 binary)
Coefficient statistics:
  Matrix range     [1e+00, 1e+01]
  Objective range  [3e+00, 1e+02]
  Bounds range     [1e+00, 1e+00]
  RHS range        [1e+00, 1e+00]

User MIP start produced solution with objective 909 (0.27s)
Loaded user MIP start with objective 909

Presolve removed 5054 rows and 3900 columns
Presolve time: 3.05s
Presolved: 8253 rows, 8160 columns, 165405 nonzeros
Variable types: 0 continuous, 8160 integer (8134 binary)

Root simplex log...

Iteration    Objective       Primal Inf.    Dual Inf.      Time
    2314    5.3586677e+02   3.374882e+03   0.000000e+00      5s
    5739    5.5073786e+02   9.465483e+02   0.000000e+00     10s
    8638    5.5349763e+02   1.362703e+03   0.000000e+00     15s
   11170    5.5590438e+02   1.030635e+03   0.000000e+00     20s
   13190    5.5713342e+02   0.000000e+00   0.000000e+00     25s

Root relaxation: objective 5.571334e+02, 13190 iterations, 21.53 seconds
Total elapsed time = 25.14s

    Nodes    |    Current Node    |     Objective Bounds      |     Work
 Expl Unexpl |  Obj  Depth IntInf | Incumbent    BestBd   Gap | It/Node Time

     0     0  557.13342    0 1567  909.00000  557.13342  38.7%     -   26s
     0     0  576.51558    0 1609  909.00000  576.51558  36.6%     -   52s
     0     0  577.20388    0 1625  909.00000  577.20388  36.5%     -   58s
     0     0  577.22015    0 1620  909.00000  577.22015  36.5%     -   59s
     0     0  577.22015    0 1619  909.00000  577.22015  36.5%     -   59s
     0     0  588.78937    0 1609  909.00000  588.78937  35.2%     -   87s
     0     0  590.21864    0 1552  909.00000  590.21864  35.1%     -   95s
     0     0  590.36545    0 1549  909.00000  590.36545  35.1%     -   98s
     0     0  590.37042    0 1570  909.00000  590.37042  35.1%     -   99s
     0     0  596.02765    0 1672  909.00000  596.02765  34.4%     -  133s
     0     0  596.53610    0 1625  909.00000  596.53610  34.4%     -  145s
     0     0  596.55858    0 1618  909.00000  596.55858  34.4%     -  146s
     0     0  596.56141    0 1617  909.00000  596.56141  34.4%     -  147s
     0     0  600.43780    0 1651  909.00000  600.43780  33.9%     -  188s
     0     0  600.59746    0 1645  909.00000  600.59746  33.9%     -  197s
     0     0  600.61876    0 1651  909.00000  600.61876  33.9%     -  199s
     0     0  600.62373    0 1666  909.00000  600.62373  33.9%     -  200s
     0     0  602.75305    0 1714  909.00000  602.75305  33.7%     -  223s
     0     0  602.85526    0 1711  909.00000  602.85526  33.7%     -  230s
     0     0  602.88432    0 1691  909.00000  602.88432  33.7%     -  232s
     0     0  602.88879    0 1698  909.00000  602.88879  33.7%     -  233s
     0     0  604.25336    0 1694  909.00000  604.25336  33.5%     -  254s
     0     0  604.38692    0 1705  909.00000  604.38692  33.5%     -  262s
     0     0  604.40723    0 1693  909.00000  604.40723  33.5%     -  264s
     0     0  604.41478    0 1690  909.00000  604.41478  33.5%     -  265s
     0     0  605.48938    0 1688  909.00000  605.48938  33.4%     -  281s
     0     0  605.61670    0 1702  909.00000  605.61670  33.4%     -  287s
     0     0  605.63415    0 1712  909.00000  605.63415  33.4%     -  289s
     0     0  605.64244    0 1709  909.00000  605.64244  33.4%     -  290s
     0     0  606.50258    0 1697  909.00000  606.50258  33.3%     -  305s
     0     0  606.70752    0 1708  909.00000  606.70752  33.3%     -  316s
     0     0  606.76565    0 1722  909.00000  606.76565  33.2%     -  319s
     0     0  606.78212    0 1721  909.00000  606.78212  33.2%     -  321s
     0     0  608.41330    0 1725  909.00000  608.41330  33.1%     -  341s
     0     0  608.53004    0 1734  909.00000  608.53004  33.1%     -  349s
     0     0  608.57103    0 1752  909.00000  608.57103  33.1%     -  352s
     0     0  608.58150    0 1764  909.00000  608.58150  33.0%     -  354s
     0     0  609.36447    0 1737  909.00000  609.36447  33.0%     -  367s
     0     0  609.47194    0 1727  909.00000  609.47194  33.0%     -  379s
     0     0  609.48484    0 1737  909.00000  609.48484  32.9%     -  380s
     0     0  610.50418    0 1718  909.00000  610.50418  32.8%     -  395s
     0     0  610.74641    0 1724  909.00000  610.74641  32.8%     -  404s
     0     0  610.77469    0 1740  909.00000  610.77469  32.8%     -  407s
     0     0  610.78781    0 1745  909.00000  610.78781  32.8%     -  409s
     0     0  611.07598    0 1705  909.00000  611.07598  32.8%     -  419s
     0     0  611.17611    0 1727  909.00000  611.17611  32.8%     -  426s
     0     0  611.19203    0 1745  909.00000  611.19203  32.8%     -  428s
     0     0  611.61923    0 1730  909.00000  611.61923  32.7%     -  439s
     0     0  611.72237    0 1746  909.00000  611.72237  32.7%     -  446s
     0     0  611.74458    0 1731  909.00000  611.74458  32.7%     -  448s
     0     0  612.58405    0 1729  909.00000  612.58405  32.6%     -  464s
     0     0  612.75901    0 1732  909.00000  612.75901  32.6%     -  472s
     0     0  612.79272    0 1738  909.00000  612.79272  32.6%     -  476s
     0     0  612.80695    0 1727  909.00000  612.80695  32.6%     -  478s
     0     0  612.96384    0 1721  909.00000  612.96384  32.6%     -  486s
     0     0  612.99277    0 1729  909.00000  612.99277  32.6%     -  490s
     0     0  613.00620    0 1742  909.00000  613.00620  32.6%     -  492s
     0     0  613.80989    0 1720  909.00000  613.80989  32.5%     -  508s
     0     0  613.90878    0 1707  909.00000  613.90878  32.5%     -  513s
     0     0  613.96165    0 1721  909.00000  613.96165  32.5%     -  516s
     0     0  613.97358    0 1731  909.00000  613.97358  32.5%     -  518s
     0     0  614.38371    0 1706  909.00000  614.38371  32.4%     -  529s
     0     0  614.45289    0 1715  909.00000  614.45289  32.4%     -  542s
     0     0  614.47347    0 1723  909.00000  614.47347  32.4%     -  543s
     0     0  614.71869    0 1703  909.00000  614.71869  32.4%     -  553s
     0     0  614.75794    0 1738  909.00000  614.75794  32.4%     -  557s
     0     0  614.78336    0 1729  909.00000  614.78336  32.4%     -  560s
     0     0  614.95542    0 1714  909.00000  614.95542  32.3%     -  569s
     0     0  614.95542    0 1714  909.00000  614.95542  32.3%     -  574s
     0     2  614.96370    0 1714  909.00000  614.96370  32.3%     -  619s
     1     3  645.06050    1 1470  909.00000  614.96370  32.3% 39322  776s
     2     4  615.13289    1 1702  909.00000  615.13289  32.3% 20206  780s
     3     5  650.80427    2 1569  909.00000  615.13289  32.3% 26020  932s
     4     6  615.34652    2 1707  909.00000  615.34652  32.3% 19820  937s
     5     7  639.14929    3 1531  909.00000  615.34652  32.3% 29521 1199s
     6     8  615.57809    3 1706  909.00000  615.57809  32.3% 24842 1205s
     7     9  615.78363    4 1688  909.00000  615.57811  32.3% 21564 1212s
     8    10  655.87565    5 1535  909.00000  615.57811  32.3% 32964 1700s
     9    11  615.91033    5 1678  909.00000  615.57811  32.3% 29506 1706s
    10    12  616.49611    6 1702  909.00000  615.57811  32.3% 27032 1722s
    11    13  647.43977    7 1486  909.00000  615.57811  32.3% 26904 1801s
    12    14  616.57838    7 1684  909.00000  615.57811  32.3% 24794 1805s
    13    15  650.43422    8 1506  909.00000  615.57811  32.3% 24859 1881s
    14    16  616.78409    8 1683  909.00000  615.57811  32.3% 23268 1889s
    15    17  648.76898    9 1456  909.00000  615.57811  32.3% 23152 1959s
    16    18  617.29081    9 1665  909.00000  615.57811  32.3% 21997 1973s
    17    19  656.97541   10 1493  909.00000  615.57811  32.3% 22468 2070s
    18    20  617.47221   10 1663  909.00000  615.57811  32.3% 21323 2076s
    19    21  650.70138   11 1522  909.00000  615.57811  32.3% 21454 2154s
    20    22  617.82301   11 1684  909.00000  615.57811  32.3% 20546 2165s
    21    23  654.11846   12 1530  909.00000  615.57811  32.3% 20810 2249s
    22    24  618.03213   12 1686  909.00000  615.57811  32.3% 19970 2257s
    23    25  651.78135   13 1507  909.00000  615.57811  32.3% 20271 2343s
    24    26  618.83067   13 1664  909.00000  615.57811  32.3% 19562 2411s
    25    27  663.16447   14 1514  909.00000  615.57811  32.3% 19791 2493s
    26    28  619.07010   14 1671  909.00000  615.57811  32.3% 19105 2501s
    27    29  655.67616   15 1505  909.00000  615.57811  32.3% 19775 2646s
    28    30  619.43156   15 1657  909.00000  615.57811  32.3% 19156 2653s
    29    31  649.70803   16 1493  909.00000  615.57811  32.3% 19233 2722s
    30    32  619.52137   16 1671  909.00000  615.57811  32.3% 18623 2725s
    31    33  639.61325   17 1543  909.00000  615.57811  32.3% 18986 2844s
    32    34  619.83266   17 1673  909.00000  615.57811  32.3% 18495 2854s
    33    35  649.53084   18 1463  909.00000  615.57811  32.3% 18434 2910s
    34    36  620.58715   18 1665  909.00000  615.57811  32.3% 18017 2924s
    35    37  645.16264   19 1524  909.00000  615.57811  32.3% 18193 3004s
    36    38  621.29316   19 1629  909.00000  615.57811  32.3% 17842 3026s
    37    39  649.95503   20 1479  909.00000  615.57811  32.3% 18427 3172s
    38    40  622.20629   20 1647  909.00000  615.57811  32.3% 18077 3187s
    39    41  623.23755   21 1647  909.00000  615.57811  32.3% 17736 3201s
    40    42  648.90920   21 1508  909.00000  615.57811  32.3% 17813 3266s
    41    43  623.94082   22 1606  909.00000  615.57811  32.3% 17494 3281s
    42    44  650.92047   22 1487  909.00000  615.57811  32.3% 17651 3357s
    43    45  624.57634   23 1619  909.00000  615.57811  32.3% 17313 3369s
    44    46  653.94342   23 1533  909.00000  615.57811  32.3% 17595 3491s
    45    47  624.77081   24 1591  909.00000  615.57811  32.3% 17241 3497s
    46    48  659.22194   24 1556  909.00000  615.57811  32.3% 17366 3574s
    47    49  625.93046   25 1593  909.00000  615.57811  32.3% 17092 3588s

Cutting planes:
  MIR: 72
  StrongCG: 2
  Zero half: 56
  RLT: 936

Explored 48 nodes (935403 simplex iterations) in 3600.01 seconds
Thread count was 1 (of 40 available processors)

Solution count 1: 909 

Time limit reached
Best objective 9.090000000000e+02, best bound 6.160000000000e+02, gap 32.2332%

User-callback calls 39769, time in user-callback 0.07 sec
